40	100	100	100
9	5	2
7	4	4
1	1	2
5	6	5
9	3	9
3	3	9
3	8	2
8	3	5
4	7	2
7	3	8
2	7	1
1	7	1
1	5	9
7	7	3
3	6	5
4	5	9
7	4	2
4	1	5
6	6	9
8	8	8
4	4	3
6	3	5
5	7	2
2	5	8
5	8	2
5	5	1
3	2	9
5	9	5
3	7	1
5	6	4
7	4	5
5	6	8
8	1	3
7	1	4
4	3	7
3	7	7
4	6	1
7	9	1
2	9	9
9	6	3
